Route #1: 1 50 74 37 54 67 68 71 59 77 73 55 34 16
Route #2: 1 41 22 2 8 11 72 15
Route #3: 1 14 43 52 78 4 75 30 32 28 79
Route #4: 1 47 26 42 56 57 70 48 20 27 66 36 17 44 35
Route #5: 1 40 61 18 60 45 13
Route #6: 1 64 63 24 25 7 31
Route #7: 1 12 53 29 80 19 49
Route #8: 1 39 51 33 46 23 5
Route #9: 1 3 38 9 69 58 62
Route #10: 1 10 65 21 76 6
cost 2118
